/* Objective function */
min: - 0.0054fpdi - 0.0054fpdo + 0.05apdi + 0.05apdo + 0.0002pi + 0.0002po - 0.5fsi - 0.5fso;

apdi = 0.0 hi + 0.0 li + 7.79315 ri + 0.0754 ci + -1.42738 si + 0.0 ti + 0.07313 fTempIi + 0.04011 ami + -95.99518;
asi = 0.0 hi + 0.0 li + -0.00067 ri + 0.00109 ci + -0.0002 si + -0.0 ti + -5e-05 fTempIi + 0.00043 ami + 0.01389;
aTempOi = 0.0 hi + -0.0 li + 0.17272 ri + -0.21119 ci + -0.03204 si + 0.0 ti + 0.82165 fTempIi + -0.00151 ami + 6.67677;
fpdi = 0.0 hi + -0.0 li + 27.32589 ri + -325.7754 ci + -0.01017 si + 0.0 ti + -1.74415 fTempIi + 0.00232 ami + 837.90642;
fsi = 0.0 hi + -0.0 li + 0.0 ri + -0.52 ci + -0.0 si + 0.0 ti + -0.0 fTempIi + -0.0 ami + 2.59;
fTempOi = 0.0 hi + 0.0 li + -0.17076 ri + 0.21766 ci + 0.03131 si + -0.0 ti + 0.21447 fTempIi + -0.00162 ami + 10.57938;
pi = 0.0 hi + 0.0 li + 101.24107 ri + 3.0119 ci + -8.315 si + 0.0 ti + 0.07381 fTempIi + -2e-05 ami + 274.02103;

apdo = 0.0 ho + 0.0 lo + 9.5246 ro + 0.03915 co + -1.73844 so + -0.0 to + 0.10993 fTempIo + 0.0478 amo + -134.80778;
aso = 0.0 ho + 0.0 lo + 0.0 ro + -0.0 co + 0.0 so + -0.0 to + 0.0 fTempIo + 0.00043 amo + -0.0;
aTempOo = 0.0 ho + -0.0 lo + -0.22006 ro + 0.26313 co + 0.03777 so + -0.0 to + 0.75518 fTempIo + 0.00167 amo + -1.04427;
fpdo = 0.0 ho + -0.0 lo + 2.74159 ro + -14.80601 co + 0.00629 so + -0.0 to + -0.20529 fTempIo + -0.00026 amo + 92.55785;
fso = 0.0 ho + -0.0 lo + -0.0 ro + -0.094 co + 0.0 so + -0.0 to + 4e-05 fTempIo + 0.0 amo + 1.11132;
fTempOo = 0.0 ho + -0.0 lo + 0.22163 ro + -0.26349 co + -0.03744 so + -0.0 to + 0.27402 fTempIo + 0.00154 amo + 12.41898;
po = 0.0 ho + 0.0 lo + 92.66667 ro + 3.56667 co + -6.78476 so + -0.0 to + 0.0 fTempIo + 0.0 amo + 108.5619;

/* Variable bounds */
aTempOi > 18.6;
1 =r6i + r8i + r10i + r12i + r14i;
ri =6r6i + 8r8i + 10r10i + 12r12i + 14r14i;
1 =s30i + s40i + s50i + s60i;
si =30s30i + 40s40i + 50s50i + 60s60i;
ti = 3;
apdi > 100;
apdi < 300;
asi > 0;
asi < 3;
aTempOi > 5;
aTempOi < 25;
fpdi > 100;
fpdi < 300;
fsi > 0;
fsi < 1.25;
fTempOi > 5;
fTempOi < 25;
pi > 0;
ri > 10;
ri < 14;
ci > 1;
ci < 4;
si > 25;
si < 60;
ti > 1;
ti < 3;
fTempIi > 5;
fTempIi < 25;

/* aTempOo < 11.4; */
1 =r6o + r8o + r10o + r12o + r14o;
ro =6r6o + 8r8o + 10r10o + 12r12o + 14r14o;
1 =s25o + s30o + s40o;
so =25s25o + 30s30o + 40s40o;
to = 1;
apdo > 100;
apdo < 300;
aso > 0;
aso < 3;
aTempOo > 5;
aTempOo < 25;
fpdo > 100;
fpdo < 300;
fso > 0;
fso < 1.25;
fTempOo > 5;
fTempOo < 25;
po > 0;
ro > 10;
ro < 14;
co > 4;
co < 60;
so > 25;
so < 60;
to > 1;
to < 3;
fTempIo > 5;
fTempIo < 25;
int hi,li,si,ti,ci,ri,ami;
int ho,lo,so,to,co,ro,amo;
bin s25i,s30i,s40i,s50i,s60i,r6i,r8i,r10i,r12i,r14i;
bin s25o,s30o,s40o,s50o,s60o,r6o,r8o,r10o,r12o,r14o;
